c b=11,c=1025
p cnf 33 174
1 11 -22 0
11 -32 0
1 -11 22 0
1 -11 32 0
10 -21 0
1 10 -31 0
-10 21 0
1 -10 31 0
9 -20 0
1 9 -30 0
-9 20 0
1 -9 30 0
8 -19 0
1 8 -29 0
-8 19 0
1 -8 29 0
7 -18 0
1 7 -28 0
-7 18 0
1 -7 28 0
6 -17 0
1 6 -27 0
-6 17 0
1 -6 27 0
5 -16 0
1 5 -26 0
-5 16 0
1 -5 26 0
4 -15 0
1 4 -25 0
-4 15 0
1 -4 25 0
3 -14 0
1 3 -24 0
-3 14 0
1 -3 24 0
2 -13 0
1 2 -23 0
-2 13 0
1 -2 23 0
1 -12 0
1 -33 0
-1 11 22 0
2 11 -23 0
-1 -11 -22 0
-1 2 -11 23 0
2 -11 32 0
2 10 -31 0
2 -10 31 0
2 9 -30 0
2 -9 30 0
2 8 -29 0
2 -8 29 0
2 7 -28 0
2 -7 28 0
2 6 -27 0
2 -6 27 0
2 5 -26 0
2 -5 26 0
2 4 -25 0
2 -4 25 0
2 3 -24 0
2 -3 24 0
2 -33 0
-2 11 23 0
3 11 -24 0
-1 -2 -11 -23 0
-1 -2 3 -11 24 0
3 -11 32 0
3 10 -31 0
3 -10 31 0
3 9 -30 0
3 -9 30 0
3 8 -29 0
3 -8 29 0
3 7 -28 0
3 -7 28 0
3 6 -27 0
3 -6 27 0
3 5 -26 0
3 -5 26 0
3 4 -25 0
3 -4 25 0
3 -33 0
-3 11 24 0
4 11 -25 0
-1 -2 -3 -11 -24 0
-1 -2 -3 4 -11 25 0
4 -11 32 0
4 10 -31 0
4 -10 31 0
4 9 -30 0
4 -9 30 0
4 8 -29 0
4 -8 29 0
4 7 -28 0
4 -7 28 0
4 6 -27 0
4 -6 27 0
4 5 -26 0
4 -5 26 0
4 -33 0
-4 11 25 0
5 11 -26 0
-1 -2 -3 -4 -11 -25 0
-1 -2 -3 -4 5 -11 26 0
5 -11 32 0
5 10 -31 0
5 -10 31 0
5 9 -30 0
5 -9 30 0
5 8 -29 0
5 -8 29 0
5 7 -28 0
5 -7 28 0
5 6 -27 0
5 -6 27 0
5 -33 0
-5 11 26 0
6 11 -27 0
-1 -2 -3 -4 -5 -11 -26 0
-1 -2 -3 -4 -5 6 -11 27 0
6 -11 32 0
6 10 -31 0
6 -10 31 0
6 9 -30 0
6 -9 30 0
6 8 -29 0
6 -8 29 0
6 7 -28 0
6 -7 28 0
6 -33 0
-6 11 27 0
7 11 -28 0
-1 -2 -3 -4 -5 -6 -11 -27 0
-1 -2 -3 -4 -5 -6 7 -11 28 0
7 -11 32 0
7 10 -31 0
7 -10 31 0
7 9 -30 0
7 -9 30 0
7 8 -29 0
7 -8 29 0
7 -33 0
-7 11 28 0
8 11 -29 0
-1 -2 -3 -4 -5 -6 -7 -11 -28 0
-1 -2 -3 -4 -5 -6 -7 8 -11 29 0
8 -11 32 0
8 10 -31 0
8 -10 31 0
8 9 -30 0
8 -9 30 0
8 -33 0
-8 11 29 0
9 11 -30 0
-1 -2 -3 -4 -5 -6 -7 -8 -11 -29 0
-1 -2 -3 -4 -5 -6 -7 -8 9 -11 30 0
9 -11 32 0
9 10 -31 0
9 -10 31 0
9 -33 0
-9 11 30 0
10 11 -31 0
-1 -2 -3 -4 -5 -6 -7 -8 -9 -11 -30 0
-1 -2 -3 -4 -5 -6 -7 -8 -9 10 -11 31 0
10 -11 32 0
10 -33 0
-10 11 31 0
11 -33 0
-1 -2 -3 -4 -5 -6 -7 -8 -9 -10 -11 -31 0
-1 -2 -3 -4 -5 -6 -7 -8 -9 -10 -11 33 0
-1 -2 -3 -4 -5 -6 -7 -8 -9 -10 -32 0
-1 12 0
